db/data/171792487315117118472042415811237795526.z3.out
-------------------
2500.094312919
